NAME: binpacking2d-01.bp2d
COMMENT: gcut1
NB_ITEMS: 10
BIN_WIDTH: 250
BIN_HEIGHT: 250

ITEMS [id width height]:
1 167 184
2 114 118
3 167 152
4 83 140
5 70 86
6 143 166
7 120 160
8 66 148
9 87 141
10 69 165